NPROCS=0
This instance is clustered!
Gurobi Optimizer version 9.0.0 build v9.0.0rc2 (linux64)
Optimize a model with 40 rows, 401 columns and 800 nonzeros
Model fingerprint: 0x7fbddb5d
Variable types: 1 continuous, 400 integer (400 binary)
Coefficient statistics:
  Matrix range     [1e+00, 1e+00]
  Objective range  [1e+00, 3e+02]
  Bounds range     [1e+00, 1e+00]
  RHS range        [1e+00, 1e+00]
 done with super cut 0
Presolve removed 2 rows and 57 columns
Presolve time: 0.00s
Presolved: 38 rows, 344 columns, 686 nonzeros
Variable types: 1 continuous, 343 integer (343 binary)

Root relaxation: objective 8.497954e+02, 35 iterations, 0.00 seconds

    Nodes    |    Current Node    |     Objective Bounds      |     Work
 Expl Unexpl |  Obj  Depth IntInf | Incumbent    BestBd   Gap | It/Node Time

     0     0  870.55095    0   23          -  870.55095      -     -    0s
 done with super cut 1
 done with super cut 2
H    0     0                    2687.8104485  870.55095  67.6%     -    0s
 done with super cut 3
 done with super cut 4
 done with super cut 5
 done with super cut 6
 done with super cut 7
H    0     0                    1743.6698452  870.55095  50.1%     -    4s
     0     0 1003.66495    0   12 1743.66985 1003.66495  42.4%     -    4s
 done with super cut 8
 done with super cut 9
H    0     0                    1482.9464641 1003.66495  32.3%     -    6s
 done with super cut 10
     0     0 1017.92204    0   21 1482.94646 1017.92204  31.4%     -    6s
H    0     0                    1271.2511098 1017.92204  19.9%     -    6s
H    0     0                    1153.7282442 1017.92204  11.8%     -    6s
     0     0 1027.32464    0   40 1153.72824 1027.32464  11.0%     -    6s
     0     0 1035.41120    0   37 1153.72824 1035.41120  10.3%     -    6s
     0     0 1036.12276    0   38 1153.72824 1036.12276  10.2%     -    6s
     0     0 1036.28270    0   39 1153.72824 1036.28270  10.2%     -    6s
     0     0 1040.65912    0   48 1153.72824 1040.65912  9.80%     -    6s
     0     0 1043.00816    0   49 1153.72824 1043.00816  9.60%     -    6s
     0     0 1043.72386    0   51 1153.72824 1043.72386  9.53%     -    6s
     0     0 1043.79801    0   51 1153.72824 1043.79801  9.53%     -    6s
     0     0 1043.91672    0   53 1153.72824 1043.91672  9.52%     -    6s
     0     0 1044.19601    0   43 1153.72824 1044.19601  9.49%     -    6s
     0     0 1044.25696    0   52 1153.72824 1044.25696  9.49%     -    6s
     0     0 1044.27499    0   52 1153.72824 1044.27499  9.49%     -    6s
     0     0 1044.28182    0   53 1153.72824 1044.28182  9.49%     -    6s
     0     0 1044.28182    0   53 1153.72824 1044.28182  9.49%     -    6s
     0     2 1044.28182    0   53 1153.72824 1044.28182  9.49%     -    6s

Cutting planes:
  Gomory: 5
  MIR: 3
  Zero half: 10
  Lazy constraints: 72

Explored 1538 nodes (12216 simplex iterations) in 7.02 seconds
Thread count was 12 (of 12 available processors)

Solution count 5: 1153.73 1271.25 1482.95 ... 2687.81

Optimal solution found (tolerance 1.00e-04)
Best objective 1.153728244153e+03, best bound 1.153728244153e+03, gap 0.0000%

User-callback calls 3556, time in user-callback 6.64 sec
/projects/academic/josewalt/caigao/RRARP_BD/BendersDecomp/ret/model_outs/n_18_e_4_algo_4.out
 =====>>>>> Solution is written to file in <../ret/model_outs> !!!
===>> All Done!
